src/problems/cvrp/data/train_data/train_case_8.vrp
NAME : case_7
TYPE : CVRP
DIMENSION : 10
EDGE_WEIGHT_TYPE : EUC_2D
CAPACITY : 30
NODE_COORD_SECTION
1	901	875
2	184	941
3	652	154
4	754	703
5	75	647
6	174	812
7	233	438
8	575	901
9	182	123
10	890	951
DEMAND_SECTION
1	0
2	6
3	1
4	10
5	7
6	6
7	2
8	8
9	7
10	3
DEPOT_SECTION
1
-1
EOF
VEHICLE : 2
