src/problems/tsp/data/train_data/train_case_8.tsp
NAME : case_8
TYPE : TSPc
DIMENSION : 8
EDGE_WEIGHT_TYPE : EUC_2D
NODE_COORD_SECTION
1 2.00000e+02 4.00000e+02
2 2.00000e+02 5.00000e+02
3 2.00000e+02 6.00000e+02
4 2.00000e+02 7.00000e+02
5 2.00000e+02 8.00000e+02
6 2.00000e+02 9.00000e+02
7 2.00000e+02 1.00000e+03
8 2.00000e+02 1.10000e+03
9 2.00000e+02 1.20000e+03
10 2.00000e+02 1.30000e+03
11 1.72000e+03 3.40900e+03
12 1.82900e+03 2.70000e+03
13 1.82900e+03 2.80000e+03
14 1.82900e+03 3.45000e+03
15 2.06000e+03 1.65000e+03
16 2.05000e+03 3.15000e+03
17 2.17000e+03 1.90000e+03
18 2.11000e+03 2.00000e+03
19 2.12000e+03 2.75000e+03
20 2.15000e+03 3.25000e+03
21 2.29000e+03 1.40000e+03
22 2.22000e+03 2.82000e+03
23 2.28000e+03 3.25000e+03
24 2.39000e+03 1.30000e+03
25 2.32000e+03 1.50000e+03
26 2.45000e+03 7.10000e+02
27 2.62000e+03 3.65000e+03
28 2.75000e+03 5.20000e+02
29 2.76000e+03 2.36000e+03
30 2.85000e+03 2.20000e+03
EOF
